10
1 0 53
2 0 115
2 1 29
3 0 60
3 1 68
3 2 98
4 0 59
4 1 74
4 2 61
4 3 80
5 0 88
5 1 8
5 2 9
5 3 27
5 4 90
6 0 154
6 1 157
6 2 47
6 3 69
6 4 70
6 5 10
7 0 128
7 1 76
7 2 151
7 3 79
7 4 83
7 5 91
7 6 122
8 0 19
8 1 50
8 2 70
8 3 150
8 4 93
8 5 129
8 6 138
8 7 68
9 0 2
9 1 44
9 2 51
9 3 98
9 4 26
9 5 58
9 6 64
9 7 85
9 8 19
